c "718315.clq"
p edge 150 584
e 1 5
e 1 6
e 1 11
e 1 20
e 1 26
e 1 46
e 1 47
e 1 55
e 1 71
e 1 72
e 1 88
e 1 110
e 1 132
e 2 5
e 2 6
e 2 7
e 2 8
e 2 9
e 2 10
e 2 13
e 2 15
e 2 19
e 2 23
e 2 24
e 2 26
e 2 30
e 2 31
e 2 40
e 2 43
e 2 45
e 2 52
e 2 65
e 2 67
e 2 69
e 2 78
e 2 80
e 2 84
e 2 85
e 2 89
e 2 100
e 2 113
e 2 119
e 2 121
e 2 123
e 2 141
e 2 142
e 3 5
e 3 6
e 3 7
e 3 8
e 3 12
e 3 16
e 3 18
e 3 21
e 3 23
e 3 36
e 3 38
e 3 39
e 3 42
e 3 43
e 3 50
e 3 56
e 3 64
e 3 86
e 3 87
e 3 90
e 3 93
e 3 99
e 3 102
e 3 105
e 3 106
e 3 107
e 3 111
e 3 112
e 3 125
e 3 129
e 3 133
e 3 139
e 3 147
e 4 5
e 4 83
e 4 90
e 4 126
e 4 144
e 5 6
e 5 7
e 5 9
e 5 11
e 5 15
e 5 18
e 5 19
e 5 21
e 5 23
e 5 24
e 5 25
e 5 26
e 5 27
e 5 28
e 5 29
e 5 31
e 5 32
e 5 33
e 5 35
e 5 39
e 5 40
e 5 43
e 5 45
e 5 47
e 5 49
e 5 52
e 5 55
e 5 59
e 5 60
e 5 82
e 5 85
e 5 89
e 5 92
e 5 95
e 5 98
e 5 120
e 5 123
e 5 124
e 5 128
e 5 144
e 5 147
e 5 148
e 6 7
e 6 8
e 6 10
e 6 11
e 6 12
e 6 13
e 6 14
e 6 17
e 6 20
e 6 31
e 6 33
e 6 34
e 6 40
e 6 44
e 6 51
e 6 53
e 6 54
e 6 56
e 6 58
e 6 60
e 6 63
e 6 66
e 6 96
e 6 97
e 6 99
e 6 117
e 6 121
e 6 122
e 6 129
e 6 143
e 7 8
e 7 9
e 7 13
e 7 14
e 7 15
e 7 18
e 7 25
e 7 30
e 7 35
e 7 50
e 7 53
e 7 56
e 7 58
e 7 62
e 7 65
e 7 71
e 7 75
e 7 87
e 7 94
e 7 106
e 7 110
e 7 124
e 7 125
e 7 131
e 8 9
e 8 10
e 8 11
e 8 15
e 8 16
e 8 17
e 8 22
e 8 24
e 8 27
e 8 29
e 8 37
e 8 50
e 8 60
e 8 65
e 8 71
e 8 72
e 8 75
e 8 78
e 8 81
e 8 87
e 8 108
e 9 10
e 9 12
e 9 13
e 9 14
e 9 20
e 9 48
e 9 49
e 9 59
e 9 62
e 9 68
e 9 73
e 9 112
e 9 122
e 9 126
e 9 135
e 9 148
e 10 31
e 10 32
e 10 35
e 10 42
e 10 55
e 10 101
e 10 149
e 11 12
e 11 14
e 11 16
e 11 17
e 11 18
e 11 19
e 11 20
e 11 28
e 11 33
e 11 44
e 11 47
e 11 54
e 11 57
e 11 58
e 11 59
e 11 73
e 11 74
e 11 84
e 11 96
e 11 101
e 11 115
e 11 116
e 11 117
e 11 120
e 11 139
e 11 145
e 11 150
e 12 53
e 12 68
e 12 96
e 12 126
e 13 16
e 13 19
e 13 21
e 13 22
e 13 29
e 13 57
e 13 67
e 13 136
e 14 25
e 14 33
e 14 38
e 14 41
e 14 61
e 14 70
e 14 85
e 14 90
e 14 91
e 14 95
e 14 100
e 14 101
e 14 104
e 14 135
e 15 17
e 15 27
e 15 28
e 15 38
e 15 76
e 15 79
e 15 114
e 15 129
e 15 136
e 15 138
e 15 139
e 15 143
e 16 41
e 16 43
e 16 48
e 16 52
e 16 58
e 16 75
e 16 78
e 16 93
e 16 113
e 16 126
e 17 22
e 17 23
e 17 24
e 17 25
e 17 36
e 17 61
e 17 63
e 17 69
e 17 86
e 17 92
e 17 98
e 17 116
e 17 127
e 17 138
e 17 141
e 18 26
e 18 32
e 18 36
e 18 45
e 18 67
e 18 96
e 18 116
e 18 130
e 19 21
e 19 22
e 19 82
e 19 109
e 20 72
e 20 86
e 21 32
e 21 36
e 21 47
e 21 65
e 21 70
e 21 78
e 21 87
e 21 92
e 21 117
e 21 132
e 22 37
e 22 46
e 22 83
e 22 89
e 22 106
e 23 34
e 23 42
e 23 59
e 23 74
e 23 140
e 24 28
e 24 38
e 24 127
e 25 27
e 25 29
e 25 30
e 25 51
e 25 52
e 25 100
e 26 39
e 26 48
e 26 61
e 26 77
e 26 93
e 26 105
e 27 37
e 27 41
e 27 63
e 27 81
e 27 83
e 27 91
e 27 108
e 27 111
e 27 128
e 27 133
e 27 136
e 28 30
e 28 46
e 28 48
e 28 68
e 28 88
e 28 121
e 28 128
e 30 34
e 30 42
e 30 74
e 30 79
e 30 118
e 30 130
e 31 37
e 31 64
e 31 142
e 32 35
e 32 50
e 32 101
e 32 134
e 33 34
e 33 49
e 33 73
e 33 76
e 33 94
e 34 45
e 34 46
e 34 88
e 34 102
e 34 138
e 35 39
e 35 44
e 35 53
e 35 55
e 35 81
e 35 82
e 35 83
e 35 98
e 35 139
e 35 145
e 36 41
e 36 61
e 37 70
e 37 93
e 38 40
e 38 57
e 38 64
e 38 68
e 38 72
e 38 75
e 38 84
e 38 105
e 38 120
e 38 124
e 39 44
e 39 62
e 39 63
e 39 66
e 39 112
e 39 121
e 39 122
e 41 60
e 41 90
e 41 146
e 42 49
e 42 51
e 42 62
e 42 70
e 42 71
e 42 82
e 42 89
e 42 150
e 43 92
e 44 73
e 44 130
e 45 76
e 46 57
e 46 74
e 46 88
e 46 109
e 46 118
e 46 131
e 46 137
e 46 141
e 47 54
e 47 56
e 47 64
e 47 99
e 47 100
e 47 106
e 47 143
e 48 54
e 48 102
e 48 127
e 49 51
e 49 123
e 50 66
e 50 79
e 50 129
e 51 76
e 51 111
e 51 112
e 51 118
e 52 116
e 53 69
e 53 107
e 53 135
e 53 142
e 54 146
e 55 118
e 57 103
e 57 108
e 57 127
e 58 77
e 58 84
e 58 94
e 58 134
e 59 80
e 59 91
e 59 109
e 59 125
e 60 66
e 60 110
e 60 143
e 61 69
e 61 102
e 61 119
e 62 91
e 62 97
e 62 146
e 62 147
e 63 137
e 63 142
e 64 67
e 64 81
e 64 97
e 65 97
e 65 99
e 66 86
e 67 95
e 67 115
e 68 103
e 68 113
e 69 115
e 69 148
e 69 149
e 70 80
e 70 136
e 71 77
e 71 80
e 71 105
e 71 107
e 71 140
e 73 103
e 74 138
e 75 77
e 75 79
e 75 111
e 75 128
e 78 123
e 79 113
e 80 104
e 80 133
e 81 107
e 81 109
e 83 85
e 83 98
e 83 114
e 83 144
e 85 94
e 85 117
e 85 120
e 86 104
e 87 95
e 87 108
e 87 134
e 87 140
e 88 115
e 90 119
e 90 132
e 91 114
e 92 134
e 93 119
e 93 144
e 94 122
e 95 103
e 95 131
e 96 110
e 98 140
e 100 104
e 103 125
e 104 141
e 104 150
e 105 137
e 106 114
e 106 145
e 111 149
e 112 146
e 118 147
e 121 124
e 123 131
e 123 137
e 124 133
e 125 130
e 126 135
e 128 132
e 130 148
e 131 145
e 141 150
e 144 149
